% demand
num_movements = 33;
loading_factor = [1700, 1150, 1100, 1550, 800, 2000, 900, 1800, 850, 1450, 1400, 1300, 1100, 1750, 1750, 1200, 1750, 1000, 1850, 1550, 1700, 950, 1550, 1400, 1500, 1800, 1850, 1450, 1800, 1950, 1500, 1900, 800];
pickup_time = [0, 0, 0, 0, 0, 0, 0, 0, 2, 2, 3, 3, 3, 3, 3, 3, 4, 4, 6, 6, 6, 6, 7, 7, 7, 9, 9, 9, 9, 9, 9, 10, 12];
delivery_time = [2, 2, 2, 2, 1, 2, 2, 2, 6, 4, 5, 6, 4, 8, 5, 6, 6, 5, 9, 8, 7, 8, 8, 9, 8, 13, 13, 10, 13, 12, 13, 13, 13];

% transporter definition
total_capacity = 11000;
num_decks = 4;
capacity = [3000, 3000, 1000, 4000];

% ways out of decks
num_ways_out = 2;
paths_out = array3d(decks, ways_out, decks, [
% ways out of deck d1
2, 4, 0, 0, 3, 4, 0, 0, 

% ways out of deck d2
4, 0, 0, 0, 0, 0, 0, 0,	

% ways out of deck d3
4, 0, 0, 0, 0, 0, 0, 0,	

% ways out of deck d4
0, 0, 0, 0,	0, 0, 0, 0,	

]);

